c
c 2020-05-11T12:19:17.749349
c Raymond Wei
c
p cnf 12 40
c
9 -5 -12 0
-7 -11 -2 0
-6 -12 -11 0
11 -5 4 0
-5 12 -9 0
4 5 -9 0
-7 -12 -4 0
10 -6 5 0
3 -11 7 0
5 -2 -9 0
-8 11 -5 0
3 -5 -12 0
-7 -3 9 0
3 -6 11 0
-7 2 10 0
-6 11 -12 0
12 -11 -10 0
10 -4 5 0
3 -2 7 0
3 12 5 0
12 6 -1 0
9 -6 11 0
5 -11 -1 0
-7 -6 3 0
8 -7 5 0
-7 -11 6 0
1 -5 -3 0
8 1 -3 0
10 -5 -11 0
3 -12 -9 0
-8 -2 -9 0
8 -7 11 0
3 6 -5 0
-7 3 4 0
-7 -2 -1 0
-8 5 -9 0
3 -12 7 0
-8 -4 -3 0
1 5 6 0
-8 11 -4 0
%
0
